NAME : E-n33-k4.511262.tour
COMMENT : Length = 511262
COMMENT : Found by LKH [Keld Helsgaun] Sun Dec 17 21:55:43 2017
TYPE : TOUR
DIMENSION : 36
TOUR_SECTION
1
5
6
7
8
33
9
10
11
34
31
30
29
27
35
32
2
15
16
18
26
28
17
36
4
3
13
12
14
19
20
22
21
23
25
24
-1
EOF
